Data path: /scratch/opt/lxu/CFLG/benchmarks/random_A
Instance: r_10_0.2_9.txt
Result path: /scratch/opt/lxu/CFLG/results/random_A
Solver: Gurobi
Time limit: 7200
Formulation: LEFPD
Cover: Large
julia --project=. src/main.jl /scratch/opt/lxu/CFLG/benchmarks/random_A r_10_0.2_9.txt /scratch/opt/lxu/CFLG/results/random_A Gurobi 7200 LEFPD Large
The latest version of Julia in the `release` channel is 1.11.5+0.x64.linux.gnu. You currently have `1.11.4+0.x64.linux.gnu` installed. Run:

  juliaup update

in your terminal shell to install Julia 1.11.5+0.x64.linux.gnu and update the `release` channel to that version.
/scratch/opt/lxu/CFLG/benchmarks/random_A Gurobi 7200.0 /scratch/opt/lxu/CFLG/results/random_A r_10_0.2_9.txt LEFPD Large
/scratch/opt/lxu/CFLG/benchmarks/random_A/r_10_0.2_9.txt

 read graph
data loaded

problem_graph/original graph: node: 10/10 edge: 9/9 dlt: 0.9411961376803664 break_avg_len: 0.4705980688401832 break_max_len: 0.8466035273230632Set parameter TokenServer to value "solice01.zib.de"
Set parameter Threads to value 1
Set parameter OutputFlag to value 1
Gurobi Optimizer version 12.0.1 build v12.0.1rc0 (linux64 - "Debian GNU/Linux 12 (bookworm)")

CPU model: Intel(R) Xeon(R) Gold 5222 CPU @ 3.80GHz, instruction set [SSE2|AVX|AVX2|AVX512]
Thread count: 8 physical cores, 16 logical processors, using up to 1 threads

Non-default parameters:
Threads  1

Optimize a model with 19 rows, 27 columns and 45 nonzeros
Model fingerprint: 0xaf106b66
Coefficient statistics:
  Matrix range     [1e+00, 1e+00]
  Objective range  [1e+00, 1e+00]
  Bounds range     [1e+00, 1e+00]
  RHS range        [1e+00, 1e+00]
Presolve removed 19 rows and 27 columns
Presolve time: 0.00s
Presolve: All rows and columns removed
Iteration    Objective       Primal Inf.    Dual Inf.      Time
       0    3.0000000e+00   0.000000e+00   0.000000e+00      0s

Solved in 0 iterations and 0.00 seconds (0.00 work units)
Optimal objective  3.000000000e+00

User-callback calls 35, time in user-callback 0.00 sec
elapsed CPU time: 0.995829 seconds
Set parameter TokenServer to value "solice01.zib.de"
Set parameter Threads to value 1
Set parameter OutputFlag to value 1
Set parameter MIPGap to value 0.0001
Set parameter MIPGapAbs to value 0.999998
Set parameter TimeLimit to value 7199.004171

 more cuts:falsefalse
3 0
formulation:LEFPD0 9 10

 model loaded

Gurobi Optimizer version 12.0.1 build v12.0.1rc0 (linux64 - "Debian GNU/Linux 12 (bookworm)")

CPU model: Intel(R) Xeon(R) Gold 5222 CPU @ 3.80GHz, instruction set [SSE2|AVX|AVX2|AVX512]
Thread count: 8 physical cores, 16 logical processors, using up to 1 threads

Non-default parameters:
TimeLimit  7199.004171
MIPGapAbs  0.999998
Threads  1

Optimize a model with 230 rows, 158 columns and 615 nonzeros
Model fingerprint: 0x15186c0f
Variable types: 79 continuous, 79 integer (79 binary)
Coefficient statistics:
  Matrix range     [1e-02, 1e+00]
  Objective range  [1e+00, 1e+00]
  Bounds range     [3e-01, 8e-01]
  RHS range        [3e-01, 2e+00]
Found heuristic solution: objective 5.0000000
Presolve removed 106 rows and 60 columns
Presolve time: 0.00s
Presolved: 124 rows, 98 columns, 416 nonzeros
Variable types: 43 continuous, 55 integer (55 binary)

Root relaxation: objective 2.000000e+00, 60 iterations, 0.00 seconds (0.00 work units)

    Nodes    |    Current Node    |     Objective Bounds      |     Work
 Expl Unexpl |  Obj  Depth IntInf | Incumbent    BestBd   Gap | It/Node Time

     0     0    2.00000    0    2    5.00000    2.00000  60.0%     -    0s
H    0     0                       3.0000000    2.00000  33.3%     -    0s
H    0     0                       2.0000000    2.00000  0.00%     -    0s
     0     0    2.00000    0    2    2.00000    2.00000  0.00%     -    0s

Explored 1 nodes (100 simplex iterations) in 0.01 seconds (0.00 work units)
Thread count was 1 (of 16 available processors)

Solution count 3: 2 3 5 

Optimal solution found (tolerance 1.00e-04)
Best objective 2.000000000000e+00, best bound 2.000000000000e+00, gap 0.0000%

User-callback calls 869, time in user-callback 0.00 sec

 sepatime0
2.0Stat(MathOptInterface.OPTIMAL, 2.0, 2.0, 0.0, 0.0, 0.995829, 0.00745391845703125, 1, Main.CFLG.LEFPD, "", #undef)
